Welcome to the CBC MILP Solver 
Version: 2.10.3 
Build Date: Dec 15 2019 

command line - /home/pineda/.local/lib/python3.14/site-packages/pulp/apis/../solverdir/cbc/linux/i64/cbc /tmp/4d3b986fb58d426b93afe64950bbd3ca-pulp.mps -sec 180 -ratio 0.0 -timeMode elapsed -solve -printingOptions all -solution /tmp/4d3b986fb58d426b93afe64950bbd3ca-pulp.sol (default strategy 1)
At line 2 NAME          MODEL
At line 3 ROWS
At line 1162 COLUMNS
At line 5433 RHS
At line 6591 BOUNDS
At line 7022 ENDATA
Problem MODEL has 1157 rows, 430 columns and 3395 elements
Coin0008I MODEL read with 0 errors
seconds was changed from 1e+100 to 180
ratioGap was changed from 0 to 0
Option for timeMode changed from cpu to elapsed
Continuous objective value is 0.0687481 - 0.01 seconds
Cgl0003I 0 fixed, 0 tightened bounds, 75 strengthened rows, 0 substitutions
Cgl0004I processed model has 1067 rows, 340 columns (340 integer (340 of which binary)) and 3290 elements
Cutoff increment increased from 1e-05 to 0.9999
Cbc0045I 15 integer variables out of 340 objects (340 integer) have cost of 1 - high priority
Cbc0045I branch on satisfied N create fake objective Y random cost Y
Cbc0038I Initial state - 245 integers unsatisfied sum - 4.0119
Cbc0038I Pass   1: suminf.    3.98586 (161) obj. 0.208081 iterations 213
Cbc0038I Pass   2: suminf.    7.44161 (100) obj. 0.422222 iterations 251
Cbc0038I Pass   3: suminf.    5.91813 (168) obj. 0.208081 iterations 135
Cbc0038I Pass   4: suminf.   12.22254 (103) obj. 0.422222 iterations 226
Cbc0038I Pass   5: suminf.    9.54880 (166) obj. 0.208081 iterations 210
Cbc0038I Pass   6: suminf.   12.68424 (160) obj. 0.208081 iterations 53
Cbc0038I Pass   7: suminf.   11.54588 (162) obj. 0.208081 iterations 50
Cbc0038I Pass   8: suminf.   11.53907 (162) obj. 0.208081 iterations 28
Cbc0038I Pass   9: suminf.   12.91012 (169) obj. 0.208081 iterations 65
Cbc0038I Pass  10: suminf.   10.95625 (168) obj. 0.208081 iterations 59
Cbc0038I Pass  11: suminf.   12.02170 (169) obj. 0.208081 iterations 35
Cbc0038I Pass  12: suminf.   10.96158 (169) obj. 0.208081 iterations 30
Cbc0038I Pass  13: suminf.   10.95625 (168) obj. 0.208081 iterations 13
Cbc0038I Pass  14: suminf.   10.95625 (168) obj. 0.208081 iterations 7
Cbc0038I Pass  15: suminf.   11.62287 (169) obj. 0.208081 iterations 79
Cbc0038I Pass  16: suminf.   10.84703 (168) obj. 0.208081 iterations 43
Cbc0038I Pass  17: suminf.   10.83987 (168) obj. 0.208081 iterations 26
Cbc0038I Pass  18: suminf.    8.78919 (163) obj. 0.208081 iterations 96
Cbc0038I Pass  19: suminf.    7.74470 (170) obj. 0.208081 iterations 35
Cbc0038I Pass  20: suminf.    7.74213 (170) obj. 0.208081 iterations 12
Cbc0038I Pass  21: suminf.   11.08493 (169) obj. 0.208081 iterations 56
Cbc0038I Pass  22: suminf.   10.65643 (168) obj. 0.208081 iterations 23
Cbc0038I Pass  23: suminf.    9.06495 (169) obj. 0.208081 iterations 73
Cbc0038I Pass  24: suminf.    7.74470 (170) obj. 0.208081 iterations 62
Cbc0038I Pass  25: suminf.    7.74213 (170) obj. 0.208081 iterations 31
Cbc0038I Pass  26: suminf.   12.40457 (163) obj. 0.208081 iterations 22
Cbc0038I Pass  27: suminf.   11.06088 (170) obj. 0.208081 iterations 34
Cbc0038I Pass  28: suminf.    9.89188 (170) obj. 0.208081 iterations 34
Cbc0038I Pass  29: suminf.    9.89188 (170) obj. 0.208081 iterations 12
Cbc0038I Pass  30: suminf.   11.54844 (170) obj. 0.208081 iterations 77
Cbc0038I Pass  31: suminf.   10.65643 (168) obj. 0.208081 iterations 36
Cbc0038I Pass  32: suminf.   11.32977 (170) obj. 0.208081 iterations 82
Cbc0038I Pass  33: suminf.   10.90403 (169) obj. 0.208081 iterations 30
Cbc0038I Pass  34: suminf.   10.78455 (168) obj. 0.208081 iterations 12
Cbc0038I Pass  35: suminf.   10.00369 (168) obj. 0.208081 iterations 39
Cbc0038I Pass  36: suminf.    9.98410 (168) obj. 0.208081 iterations 16
Cbc0038I Pass  37: suminf.   12.36868 (170) obj. 0.208081 iterations 51
Cbc0038I Pass  38: suminf.    7.74470 (170) obj. 0.208081 iterations 12
Cbc0038I Pass  39: suminf.    7.74213 (170) obj. 0.208081 iterations 24
Cbc0038I Pass  40: suminf.   12.40457 (163) obj. 0.208081 iterations 23
Cbc0038I Pass  41: suminf.   11.06088 (170) obj. 0.208081 iterations 21
Cbc0038I Pass  42: suminf.    9.89188 (170) obj. 0.208081 iterations 19
Cbc0038I Pass  43: suminf.    9.89188 (170) obj. 0.208081 iterations 11
Cbc0038I Pass  44: suminf.    7.87320 (170) obj. 0.208081 iterations 54
Cbc0038I Pass  45: suminf.    7.74470 (170) obj. 0.208081 iterations 29
Cbc0038I Pass  46: suminf.    7.74213 (170) obj. 0.208081 iterations 19
Cbc0038I Pass  47: suminf.   12.41430 (170) obj. 0.208081 iterations 21
Cbc0038I Pass  48: suminf.   11.66330 (162) obj. 0.208081 iterations 22
Cbc0038I Pass  49: suminf.   10.67760 (169) obj. 0.208081 iterations 23
Cbc0038I Pass  50: suminf.    9.91141 (170) obj. 0.208081 iterations 22
Cbc0038I Pass  51: suminf.    9.89188 (170) obj. 0.208081 iterations 20
Cbc0038I Pass  52: suminf.    8.28386 (163) obj. 0.208081 iterations 77
Cbc0038I Pass  53: suminf.    7.74470 (170) obj. 0.208081 iterations 33
Cbc0038I Pass  54: suminf.    7.74213 (170) obj. 0.208081 iterations 25
Cbc0038I Pass  55: suminf.   10.56593 (163) obj. 0.208081 iterations 63
Cbc0038I Pass  56: suminf.   10.04509 (170) obj. 0.208081 iterations 45
Cbc0038I Pass  57: suminf.    9.91141 (170) obj. 0.208081 iterations 17
Cbc0038I Pass  58: suminf.    9.89188 (170) obj. 0.208081 iterations 10
Cbc0038I Pass  59: suminf.   11.54844 (170) obj. 0.208081 iterations 76
Cbc0038I Pass  60: suminf.   10.65660 (168) obj. 0.208081 iterations 50
Cbc0038I Pass  61: suminf.   11.84480 (170) obj. 0.208081 iterations 86
Cbc0038I Pass  62: suminf.   11.84480 (170) obj. 0.208081 iterations 10
Cbc0038I Pass  63: suminf.   12.47374 (159) obj. 0.208081 iterations 57
Cbc0038I Pass  64: suminf.   11.95937 (163) obj. 0.208081 iterations 47
Cbc0038I Pass  65: suminf.   10.24549 (168) obj. 0.208081 iterations 38
Cbc0038I Pass  66: suminf.    9.92907 (170) obj. 0.208081 iterations 27
Cbc0038I Pass  67: suminf.    9.91985 (170) obj. 0.208081 iterations 25
Cbc0038I Pass  68: suminf.   12.94849 (170) obj. 0.208081 iterations 20
Cbc0038I Pass  69: suminf.   11.52683 (168) obj. 0.208081 iterations 38
Cbc0038I Pass  70: suminf.   10.94690 (167) obj. 0.208081 iterations 14
Cbc0038I Pass  71: suminf.    9.64573 (158) obj. 0.208081 iterations 44
Cbc0038I Pass  72: suminf.    7.64980 (170) obj. 0.208081 iterations 41
Cbc0038I Pass  73: suminf.    7.64685 (170) obj. 0.208081 iterations 12
Cbc0038I Pass  74: suminf.    6.17878 (170) obj. 0.208081 iterations 33
Cbc0038I Pass  75: suminf.    5.91813 (168) obj. 0.208081 iterations 25
Cbc0038I Pass  76: suminf.   12.22254 (103) obj. 0.422222 iterations 120
Cbc0038I Pass  77: suminf.    9.54880 (166) obj. 0.208081 iterations 124
Cbc0038I Pass  78: suminf.    5.97948 (172) obj. 0.208081 iterations 53
Cbc0038I Pass  79: suminf.   12.84905 (192) obj. 2.24743 iterations 450
Cbc0038I Pass  80: suminf.    6.67677 (145) obj. 0.668687 iterations 458
Cbc0038I Pass  81: suminf.    5.91813 (168) obj. 0.208081 iterations 79
Cbc0038I Pass  82: suminf.    5.91813 (168) obj. 0.208081 iterations 19
Cbc0038I Pass  83: suminf.    9.83272 (168) obj. 0.208081 iterations 28
Cbc0038I Pass  84: suminf.    9.79835 (168) obj. 0.208081 iterations 18
Cbc0038I Pass  85: suminf.   12.10072 (160) obj. 0.208081 iterations 89
Cbc0038I Pass  86: suminf.   11.56398 (162) obj. 0.208081 iterations 63
Cbc0038I Pass  87: suminf.   11.55674 (162) obj. 0.208081 iterations 38
Cbc0038I Pass  88: suminf.   12.49920 (164) obj. 0.208081 iterations 51
Cbc0038I Pass  89: suminf.    4.42511 (161) obj. 0.208081 iterations 45
Cbc0038I Pass  90: suminf.    3.98586 (161) obj. 0.208081 iterations 56
Cbc0038I Pass  91: suminf.    4.69364 (144) obj. 0.363184 iterations 173
Cbc0038I Pass  92: suminf.   37.00060 (202) obj. 6.47707 iterations 432
Cbc0038I Pass  93: suminf.   27.05398 (184) obj. 5.97973 iterations 267
Cbc0038I Pass  94: suminf.   17.91994 (199) obj. 3.65332 iterations 215
Cbc0038I Pass  95: suminf.   10.52158 (110) obj. 1.58537 iterations 302
Cbc0038I Pass  96: suminf.    8.38303 (149) obj. 1.20606 iterations 202
Cbc0038I Pass  97: suminf.    7.77344 (165) obj. 1.20606 iterations 62
Cbc0038I Pass  98: suminf.    7.74139 (169) obj. 1.20606 iterations 20
Cbc0038I Pass  99: suminf.    7.74011 (169) obj. 1.20606 iterations 25
Cbc0038I Pass 100: suminf.   40.31529 (207) obj. 6.76847 iterations 480
Cbc0038I No solution found this major pass
Cbc0038I Before mini branch and bound, 6 integers at bound fixed and 0 continuous
Cbc0038I Full problem 1067 rows 340 columns, reduced to 1055 rows 334 columns - too large
Cbc0038I Mini branch and bound did not improve solution (0.57 seconds)
Cbc0038I Full problem 1068 rows 340 columns, reduced to 1068 rows 340 columns - too large
Cbc0038I After 0.58 seconds - Feasibility pump exiting - took 0.53 seconds
Cbc0012I Integer solution of 3 found by DiveCoefficient after 0 iterations and 0 nodes (0.61 seconds)
Cbc0038I Full problem 1067 rows 340 columns, reduced to 737 rows 245 columns - 19 fixed gives 505, 179 - ok now
Cbc0031I 20 added rows had average density of 155.35
Cbc0013I At root node, 20 cuts changed objective from 0.20624426 to 2 in 100 passes
Cbc0014I Cut generator 0 (Probing) - 60 row cuts average 22.7 elements, 0 column cuts (0 active)  in 0.067 seconds - new frequency is -100
Cbc0014I Cut generator 1 (Gomory) - 2156 row cuts average 241.5 elements, 0 column cuts (0 active)  in 0.668 seconds - new frequency is 1
Cbc0014I Cut generator 2 (Knapsack) - 13 row cuts average 19.9 elements, 0 column cuts (0 active)  in 0.065 seconds - new frequency is -100
Cbc0014I Cut generator 3 (Clique) - 0 row cuts average 0.0 elements, 0 column cuts (0 active)  in 0.020 seconds - new frequency is -100
Cbc0014I Cut generator 4 (MixedIntegerRounding2) - 21 row cuts average 25.0 elements, 0 column cuts (0 active)  in 0.353 seconds - new frequency is -100
Cbc0014I Cut generator 5 (FlowCover) - 0 row cuts average 0.0 elements, 0 column cuts (0 active)  in 0.007 seconds - new frequency is -100
Cbc0014I Cut generator 6 (TwoMirCuts) - 567 row cuts average 75.9 elements, 0 column cuts (0 active)  in 0.106 seconds - new frequency is 1
Cbc0014I Cut generator 7 (ZeroHalf) - 319 row cuts average 15.6 elements, 0 column cuts (0 active)  in 0.576 seconds - new frequency is 1
Cbc0010I After 0 nodes, 1 on tree, 3 best solution, best possible 2 (6.52 seconds)
Cbc0001I Search completed - best objective 3, took 41838 iterations and 22 nodes (10.21 seconds)
Cbc0032I Strong branching done 186 times (13392 iterations), fathomed 2 nodes and fixed 0 variables
Cbc0035I Maximum depth 6, 0 variables fixed on reduced cost
Cuts at root node changed objective from 0.206244 to 2
Probing was tried 100 times and created 60 cuts of which 0 were active after adding rounds of cuts (0.067 seconds)
Gomory was tried 126 times and created 2199 cuts of which 0 were active after adding rounds of cuts (0.703 seconds)
Knapsack was tried 100 times and created 13 cuts of which 0 were active after adding rounds of cuts (0.065 seconds)
Clique was tried 100 times and created 0 cuts of which 0 were active after adding rounds of cuts (0.020 seconds)
MixedIntegerRounding2 was tried 100 times and created 21 cuts of which 0 were active after adding rounds of cuts (0.353 seconds)
FlowCover was tried 100 times and created 0 cuts of which 0 were active after adding rounds of cuts (0.007 seconds)
TwoMirCuts was tried 126 times and created 733 cuts of which 0 were active after adding rounds of cuts (0.209 seconds)
ZeroHalf was tried 126 times and created 342 cuts of which 0 were active after adding rounds of cuts (0.656 seconds)

Result - Optimal solution found

Objective value:                3.00000000
Enumerated nodes:               22
Total iterations:               41838
Time (CPU seconds):             10.06
Time (Wallclock seconds):       10.25

Option for printingOptions changed from normal to all
Total time (CPU seconds):       10.06   (Wallclock seconds):       10.25

